c Created with the Wolfram Language : www.wolfram.com
c 
p edge 80 309
e 3 6
e 3 7
e 5 8
e 7 8
e 1 11
e 5 14
e 10 14
e 12 15
e 14 15
e 10 16
e 13 16
e 1 17
e 2 19
e 6 19
e 17 20
e 18 20
e 19 20
e 1 21
e 13 21
e 16 21
e 3 22
e 14 22
e 17 22
e 12 23
e 4 24
e 18 24
e 21 24
e 2 25
e 3 25
e 14 25
e 16 25
e 22 25
e 24 25
e 8 26
e 18 26
e 4 27
e 7 27
e 14 27
e 15 27
e 4 28
e 1 29
e 9 30
e 6 31
e 9 31
e 13 31
e 22 31
e 28 31
e 29 31
e 17 32
e 29 32
e 31 32
e 7 33
e 30 33
e 10 34
e 25 34
e 28 34
e 32 34
e 4 35
e 17 35
e 30 35
e 32 35
e 1 36
e 14 36
e 21 36
e 3 37
e 13 37
e 24 37
e 29 37
e 31 37
e 8 38
e 14 38
e 28 38
e 21 39
e 25 39
e 12 40
e 34 40
e 35 40
e 36 40
e 38 40
e 4 41
e 6 41
e 25 41
e 26 41
e 2 42
e 28 42
e 3 43
e 6 43
e 30 43
e 34 43
e 4 44
e 5 44
e 16 44
e 19 44
e 31 44
e 20 45
e 35 45
e 36 45
e 43 45
e 7 46
e 20 46
e 16 47
e 24 47
e 34 47
e 5 48
e 18 48
e 28 48
e 30 48
e 12 49
e 18 49
e 36 49
e 38 49
e 36 50
e 8 51
e 47 51
e 50 51
e 10 52
e 23 52
e 27 52
e 48 52
e 30 53
e 40 53
e 47 53
e 50 53
e 6 54
e 12 54
e 16 54
e 46 54
e 6 55
e 20 55
e 27 55
e 34 55
e 54 55
e 15 56
e 23 56
e 25 56
e 37 56
e 51 56
e 4 57
e 7 57
e 15 57
e 27 57
e 42 57
e 44 57
e 45 57
e 46 57
e 32 58
e 37 58
e 11 59
e 21 59
e 52 59
e 57 59
e 18 60
e 19 60
e 46 60
e 51 60
e 52 60
e 23 61
e 40 61
e 49 61
e 51 61
e 53 61
e 15 62
e 19 62
e 22 62
e 32 62
e 39 62
e 44 62
e 48 62
e 49 62
e 58 62
e 6 63
e 18 63
e 22 63
e 41 63
e 44 63
e 10 64
e 15 64
e 28 64
e 38 64
e 59 64
e 4 65
e 12 65
e 24 65
e 54 65
e 16 66
e 19 66
e 24 66
e 26 66
e 27 66
e 28 66
e 30 66
e 41 66
e 48 66
e 51 66
e 60 66
e 3 67
e 4 67
e 5 67
e 19 67
e 38 67
e 40 67
e 51 67
e 60 67
e 2 68
e 15 68
e 16 68
e 22 68
e 23 68
e 24 68
e 34 68
e 37 68
e 48 68
e 53 68
e 65 68
e 11 69
e 26 69
e 40 69
e 45 69
e 60 69
e 64 69
e 1 70
e 8 70
e 23 70
e 40 70
e 42 70
e 44 70
e 1 71
e 4 71
e 11 71
e 20 71
e 27 71
e 29 71
e 30 71
e 33 71
e 40 71
e 46 71
e 52 71
e 69 71
e 2 72
e 3 72
e 46 72
e 53 72
e 69 72
e 3 73
e 7 73
e 18 73
e 27 73
e 30 73
e 42 73
e 66 73
e 9 74
e 14 74
e 30 74
e 49 74
e 57 74
e 62 74
e 64 74
e 68 74
e 3 75
e 7 75
e 9 75
e 14 75
e 15 75
e 22 75
e 33 75
e 38 75
e 44 75
e 64 75
e 67 75
e 32 76
e 59 76
e 60 76
e 62 76
e 65 76
e 66 76
e 67 76
e 1 77
e 34 77
e 66 77
e 69 77
e 70 77
e 4 78
e 7 78
e 9 78
e 11 78
e 12 78
e 21 78
e 28 78
e 48 78
e 60 78
e 66 78
e 67 78
e 68 78
e 71 78
e 73 78
e 8 79
e 10 79
e 19 79
e 35 79
e 39 79
e 53 79
e 63 79
e 74 79
e 75 79
e 14 80
e 27 80
e 31 80
e 72 80
e 75 80
